WARNING: for repeatability, setting FPU to use double precision
============================[ Problem Statistics ]=============================
|                                                                             |
|  Number of variables:         13797                                         |
|  Number of clauses:           76333                                         |
|  Parse time:                   0.01 s                                       |
|                                                                             |
c ============================[ Search Statistics ]==============================
c | Conflicts |          ORIGINAL         |          LEARNT          | Progress |
c |           |    Vars  Clauses Literals |    Limit  Clauses Lit/Cl |          |
c ===============================================================================
c Switched to VSIDS.
c Switched to LRB.
c Switched to VSIDS.
c Switched to LRB.
c Switched to VSIDS.
c Switched to LRB.
c Switched to VSIDS.
c Switched to LRB.
c Switched to VSIDS.
c ===============================================================================
restarts                  : 4609
conflicts                 : 764359         (4183 /sec)
decisions                 : 4933687        (0.00 % random) (26998 /sec)
propagations              : 457052054      (2501074 /sec)
conflict literals         : 59285571       (20.38 % deleted)

conflicts w/ DIP found    : 561476         (73.46 % of conflicts)
conflicts w/ dangerous DIP: 0              (0.00 % of conflicts)
conflicts w/ DIP-learning : 75             (0.01 % of conflicts)
decisions on ext vars     : 707            (0.01 % of decisions)
total ext vars            : 26          
tried delete ext vars     : 0           
deleted ext vars          : 0           
max ext vars              : 26          

Memory used               : 118.00 MB
CPU time                  : 182.742 s
DIP computation time      : 5.4582 s (2.99 % of total time)
ER_sel time               : 0.998337 s
ER_add time               : 0.000255 s
ER_delC time              : 0 s
ER_delV time              : 0 s
ER_sub time               : 1.17876 s
ER_stat time              : 0 s

SATISFIABLE
